7017
61,11,148,130,17,66,60,140,117,27,31,129,144,49,147,72,145,64,112,136,123,74,13,106,91,119,68,128,45,71,44,115,150,4,104,22,125,149,62,3,21,78,15,59,79,121,88,94,10,113,63,48,73,76,34,87,1,98,103,82,95,107,5,143,100,7,84,30,96,89,8,124,97,146,26,75,18,142,85,65,132,137,102,114,99,19,29,86,108,70,135,50,58,55,83,141,25,20,110,81,2,37,6,28,9,42,120,47,139,40,53,118,24,12,43,109,51,138,134,54,92,46,90,56,126,93,35,52,33,105,111,16,133,80,14,122,77,131,23,38,32,67,116,101,41,57,39,127,69,36,61
